25 40
1 2 2
1 6 5
2 3 3
2 7 3
3 4 4
3 8 3
4 5 3
4 9 2
5 10 1
6 7 2
6 11 1
7 8 2
7 12 3
8 9 3
8 13 4
9 10 3
9 14 1
10 15 2
11 12 1
11 16 3
12 13 5
12 17 1
13 14 3
13 18 1
14 15 5
14 19 3
15 20 1
16 17 2
16 21 5
17 18 3
17 22 1
18 19 5
18 23 4
19 20 1
19 24 2
20 25 3
21 22 1
22 23 5
23 24 3
24 25 2
